HD 0005      2017-04-27
000000000000100000000000000-00-00

000000000000100000000450000-00-00
000000000000200000000500000-00-00
000000000000300000000300000-00-00

000000000000112345678990000-00-00

000000000010300000000000000-00-00
000012345678900000000000000-00-00
T 0003
